0	0	0
-6	52	23
-34	-18	3
-70	-30	24
24	-24	15
18	26	15
-18	36	24
-18	32	7
-16	46	25
-52	-24	13
-26	18	5
-22	58	7
-62	-28	5
-30	20	14
-10	30	13
-18	38	5
-38	-28	24
-46	52	15
-24	-14	9
-44	54	16
-2	-12	13
-42	4	16
-46	-30	13
-6	60	24
14	42	20
-50	42	23
16	-6	20
-2	52	3
-54	38	15
-8	38	12
14	40	19
-54	44	4
-72	20	15
-18	-32	1
